<number of tasks>
70

<cycle time>
364

<task times>
1 17
2 66
3 54
4 52
5 6
6 88
7 21
8 128
9 68
10 70
11 85
12 21
13 134
14 135
15 94
16 90
17 50
18 143
19 19
20 54
21 50
22 40
23 73
24 12
25 152
26 42
27 45
28 74
29 26
30 11
31 31
32 50
33 102
34 46
35 35
36 40
37 2
38 1
39 3
40 13
41 16
42 25
43 21
44 43
45 30
46 83
47 89
48 56
49 59
50 43
51 11
52 26
53 44
54 121
55 38
56 68
57 22
58 7
59 16
60 32
61 25
62 27
63 156
64 28
65 15
66 26
67 18
68 72
69 23
70 27

<precedence relations>
1,2
1,41
1,69
1,70
2,3
3,4
3,68
4,6
4,7
5,6
5,24
5,30
6,8
7,8
8,12
9,10
10,11
11,12
12,13
12,14
13,23
14,23
15,16
16,17
16,18
17,19
18,19
19,20
19,22
19,57
20,21
21,23
22,23
23,25
23,31
23,33
24,25
25,26
25,27
25,28
25,29
26,35
27,35
28,35
29,35
30,31
31,32
32,35
33,34
34,35
35,36
35,44
35,48
35,51
35,53
35,56
35,60
35,61
35,62
36,37
37,38
38,39
39,40
40,42
41,42
42,43
43,50
44,45
45,46
46,47
47,50
48,49
49,50
51,52
52,54
53,54
54,55
57,58
58,59
59,60
61,65
62,63
63,64
64,65
64,66
64,67

<setup times forward>
1,10:10
1,11:10
1,16:10
1,17:4
1,18:4
1,19:4
1,20:4
1,21:3
1,22:4
1,24:3
1,30:3
1,57:9
1,58:9
1,59:9
1,69:6
1,70:6
2,10:10
2,11:10
2,16:10
2,17:4
2,18:4
2,19:4
2,20:4
2,21:3
2,22:4
2,24:3
2,30:3
2,57:9
2,58:9
2,59:9
2,69:6
2,70:6
3,10:10
3,11:10
3,16:10
3,17:4
3,18:4
3,19:4
3,20:4
3,21:3
3,22:4
3,24:3
3,30:3
3,57:9
3,58:9
3,59:9
3,68:9
3,69:6
3,70:6
4,6:10
4,7:10
4,10:10
4,11:10
4,16:10
4,17:4
4,18:4
4,19:4
4,20:4
4,21:3
4,22:4
4,24:3
4,30:3
4,57:9
4,58:9
4,59:9
4,68:9
4,69:6
4,70:6
5,6:10
5,7:10
5,10:10
5,11:10
5,16:10
5,17:4
5,18:4
5,19:4
5,20:4
5,21:3
5,22:4
5,24:3
5,30:3
5,57:9
5,58:9
5,59:9
5,68:9
5,69:6
5,70:6
6,8:14
6,9:10
6,15:10
6,17:14
6,18:14
6,19:14
6,20:6
6,21:7
6,22:6
6,24:7
6,30:7
6,41:10
6,57:19
6,58:19
6,59:19
6,68:19
6,69:4
6,70:4
7,5:10
7,8:14
7,9:10
7,15:10
7,17:14
7,18:14
7,19:14
7,20:6
7,21:7
7,22:6
7,24:7
7,30:7
7,41:10
7,57:19
7,58:19
7,59:19
7,68:19
7,69:4
7,70:4
8,9:4
8,10:14
8,11:14
8,15:4
8,16:14
8,20:8
8,21:7
8,22:8
8,24:7
8,30:7
8,41:4
8,57:5
8,58:5
8,59:5
8,68:5
8,69:10
8,70:10
9,6:10
9,7:10
9,8:4
9,10:10
9,16:10
9,17:4
9,18:4
9,19:4
9,20:4
9,21:3
9,22:4
9,24:3
9,30:3
9,57:9
9,58:9
9,59:9
9,68:9
9,69:6
9,70:6
10,1:10
10,2:10
10,3:10
10,4:10
10,5:10
10,8:14
10,15:10
10,17:14
10,18:14
10,19:14
10,20:6
10,21:7
10,22:6
10,24:7
10,30:7
10,41:10
10,57:19
10,58:19
10,59:19
10,68:19
10,69:4
10,70:4
11,1:10
11,2:10
11,3:10
11,4:10
11,5:10
11,8:14
11,12:14
11,15:10
11,17:14
11,18:14
11,19:14
11,20:6
11,21:7
11,22:6
11,24:7
11,30:7
11,41:10
11,57:19
11,58:19
11,59:19
11,68:19
11,69:4
11,70:4
12,13:8
12,14:8
12,15:4
12,16:14
12,20:8
12,21:7
12,22:8
12,24:7
12,30:7
12,41:4
12,57:5
12,58:5
12,59:5
12,68:5
12,69:10
12,70:10
13,15:4
13,16:6
13,17:8
13,18:8
13,19:8
13,21:1
13,23:1
13,24:1
13,30:1
13,41:4
13,57:13
13,58:13
13,59:13
13,68:13
13,69:2
13,70:2
14,15:4
14,16:6
14,17:8
14,18:8
14,19:8
14,21:1
14,23:1
14,24:1
14,30:1
14,41:4
14,57:13
14,58:13
14,59:13
14,68:13
14,69:2
14,70:2
15,6:10
15,7:10
15,8:4
15,10:10
15,11:10
15,12:4
15,13:4
15,14:4
15,16:10
15,24:3
15,30:3
15,68:9
15,69:6
15,70:6
16,1:10
16,2:10
16,3:10
16,4:10
16,5:10
16,8:14
16,9:10
16,12:14
16,13:6
16,14:6
16,17:14
16,18:14
16,24:7
16,30:7
16,41:10
16,68:19
16,69:4
16,70:4
17,1:4
17,2:4
17,3:4
17,4:4
17,5:4
17,6:14
17,7:14
17,9:4
17,10:14
17,11:14
17,13:8
17,14:8
17,24:7
17,30:7
17,41:4
17,68:5
17,69:10
17,70:10
18,1:4
18,2:4
18,3:4
18,4:4
18,5:4
18,6:14
18,7:14
18,9:4
18,10:14
18,11:14
18,13:8
18,14:8
18,24:7
18,30:7
18,41:4
18,68:5
18,69:10
18,70:10
19,1:4
19,2:4
19,3:4
19,4:4
19,5:4
19,6:14
19,7:14
19,9:4
19,10:14
19,11:14
19,13:8
19,14:8
19,20:8
19,22:8
19,24:7
19,30:7
19,41:4
19,57:5
19,68:5
19,69:10
19,70:10
20,1:4
20,2:4
20,3:4
20,4:4
20,5:4
20,6:6
20,7:6
20,8:8
20,9:4
20,10:6
20,11:6
20,12:8
20,21:1
20,24:1
20,30:1
20,41:4
20,57:13
20,58:13
20,59:13
20,68:13
20,69:2
20,70:2
21,1:3
21,2:3
21,3:3
21,4:3
21,5:3
21,6:7
21,7:7
21,8:7
21,9:3
21,10:7
21,11:7
21,12:7
21,13:1
21,14:1
21,22:1
21,41:3
21,57:12
21,58:12
21,59:12
21,68:12
21,69:3
21,70:3
22,1:4
22,2:4
22,3:4
22,4:4
22,5:4
22,6:6
22,7:6
22,8:8
22,9:4
22,10:6
22,11:6
22,12:8
22,21:1
22,23:1
22,24:1
22,30:1
22,41:4
22,57:13
22,58:13
22,59:13
22,68:13
22,69:2
22,70:2
23,33:8
23,41:3
23,57:12
23,58:12
23,59:12
23,68:12
23,69:3
23,70:3
24,1:3
24,2:3
24,3:3
24,4:3
24,6:7
24,7:7
24,8:7
24,9:3
24,10:7
24,11:7
24,12:7
24,13:1
24,14:1
24,15:3
24,16:7
24,17:7
24,18:7
24,19:7
24,20:1
24,22:1
24,32:8
24,33:8
24,34:8
24,41:3
24,57:12
24,58:12
24,59:12
24,68:12
24,69:3
24,70:3
25,26:8
25,27:8
25,28:8
25,32:8
25,33:8
25,34:8
25,41:3
25,57:12
25,58:12
25,59:12
25,68:12
25,69:3
25,70:3
26,29:8
26,30:8
26,31:8
26,35:5
26,41:5
26,57:4
26,58:4
26,59:4
26,68:4
26,69:11
26,70:11
27,29:8
27,30:8
27,31:8
27,35:5
27,41:5
27,57:4
27,58:4
27,59:4
27,68:4
27,69:11
27,70:11
28,29:8
28,30:8
28,31:8
28,35:5
28,41:5
28,57:4
28,58:4
28,59:4
28,68:4
28,69:11
28,70:11
29,26:8
29,27:8
29,28:8
29,32:8
29,33:8
29,34:8
29,35:3
29,41:3
29,57:12
29,58:12
29,59:12
29,68:12
29,69:3
29,70:3
30,1:3
30,2:3
30,3:3
30,4:3
30,6:7
30,7:7
30,8:7
30,9:3
30,10:7
30,11:7
30,12:7
30,13:1
30,14:1
30,15:3
30,16:7
30,17:7
30,18:7
30,19:7
30,20:1
30,22:1
30,26:8
30,27:8
30,28:8
30,33:8
30,34:8
30,41:3
30,57:12
30,58:12
30,59:12
30,68:12
30,69:3
30,70:3
31,26:8
31,27:8
31,28:8
31,32:8
31,33:8
31,34:8
31,41:3
31,57:12
31,58:12
31,59:12
31,68:12
31,69:3
31,70:3
32,24:8
32,25:8
32,29:8
32,35:5
32,41:5
32,57:4
32,58:4
32,59:4
32,68:4
32,69:11
32,70:11
33,24:8
33,25:8
33,29:8
33,30:8
33,31:8
33,41:5
33,57:4
33,58:4
33,59:4
33,68:4
33,69:11
33,70:11
34,24:8
34,25:8
34,29:8
34,30:8
34,31:8
34,35:5
34,41:5
34,57:4
34,58:4
34,59:4
34,68:4
34,69:11
34,70:11
35,36:9
35,48:6
35,56:9
35,57:9
35,58:9
35,59:9
35,60:6
35,61:6
35,68:9
35,69:6
35,70:6
36,41:9
36,44:9
36,45:9
36,47:5
36,48:15
36,49:5
36,51:9
36,52:15
36,53:9
36,54:5
36,55:5
36,60:15
36,61:15
36,62:9
36,63:9
36,65:15
36,66:15
36,67:15
36,69:15
36,70:15
37,41:9
37,44:9
37,45:9
37,47:5
37,48:15
37,49:5
37,51:9
37,52:15
37,53:9
37,54:5
37,55:5
37,60:15
37,61:15
37,62:9
37,63:9
37,65:15
37,66:15
37,67:15
37,69:15
37,70:15
38,41:9
38,44:9
38,45:9
38,47:5
38,48:15
38,49:5
38,51:9
38,52:15
38,53:9
38,54:5
38,55:5
38,60:15
38,61:15
38,62:9
38,63:9
38,65:15
38,66:15
38,67:15
38,69:15
38,70:15
39,41:9
39,44:9
39,45:9
39,47:5
39,48:15
39,49:5
39,51:9
39,52:15
39,53:9
39,54:5
39,55:5
39,60:15
39,61:15
39,62:9
39,63:9
39,65:15
39,66:15
39,67:15
39,69:15
39,70:15
40,41:9
40,42:15
40,44:9
40,45:9
40,47:5
40,48:15
40,49:5
40,51:9
40,52:15
40,53:9
40,54:5
40,55:5
40,60:15
40,61:15
40,62:9
40,63:9
40,65:15
40,66:15
40,67:15
40,69:15
40,70:15
41,6:10
41,7:10
41,8:4
41,10:10
41,11:10
41,12:4
41,13:4
41,14:4
41,16:10
41,17:4
41,18:4
41,19:4
41,20:4
41,21:3
41,22:4
41,23:3
41,24:3
41,25:3
41,26:5
41,27:5
41,28:5
41,29:3
41,30:3
41,31:3
41,32:5
41,33:5
41,34:5
41,36:9
41,37:9
41,38:9
41,39:9
41,40:9
41,42:6
41,46:9
41,47:4
41,48:6
41,49:4
41,52:6
41,54:4
41,55:4
41,56:9
41,57:9
41,58:9
41,59:9
41,60:6
41,61:6
41,64:9
41,65:6
41,66:6
41,67:6
41,68:9
41,69:6
41,70:6
42,44:6
42,45:6
42,46:15
42,47:10
42,49:10
42,51:6
42,53:6
42,54:10
42,55:10
42,56:15
42,57:15
42,58:15
42,59:15
42,62:6
42,63:6
42,64:15
42,68:15
43,44:6
43,45:6
43,46:15
43,47:10
43,49:10
43,50:10
43,51:6
43,53:6
43,54:10
43,55:10
43,56:15
43,57:15
43,58:15
43,59:15
43,62:6
43,63:6
43,64:15
43,68:15
44,36:9
44,37:9
44,38:9
44,39:9
44,40:9
44,42:6
44,43:6
44,48:6
44,49:4
44,52:6
44,54:4
44,55:4
44,56:9
44,57:9
44,58:9
44,59:9
44,60:6
44,61:6
44,64:9
44,65:6
44,66:6
44,67:6
44,68:9
44,69:6
44,70:6
45,36:9
45,37:9
45,38:9
45,39:9
45,40:9
45,42:6
45,43:6
45,46:9
45,48:6
45,49:4
45,52:6
45,54:4
45,55:4
45,56:9
45,57:9
45,58:9
45,59:9
45,60:6
45,61:6
45,64:9
45,65:6
45,66:6
45,67:6
45,68:9
45,69:6
45,70:6
46,41:9
46,42:15
46,43:15
46,47:5
46,48:15
46,49:5
46,51:9
46,52:15
46,53:9
46,54:5
46,55:5
46,60:15
46,61:15
46,62:9
46,63:9
46,65:15
46,66:15
46,67:15
46,69:15
46,70:15
47,36:5
47,37:5
47,38:5
47,39:5
47,40:5
47,41:4
47,42:10
47,43:10
47,48:10
47,51:4
47,52:10
47,53:4
47,56:5
47,57:5
47,58:5
47,59:5
47,60:10
47,61:10
47,62:4
47,63:4
47,64:5
47,65:10
47,66:10
47,67:10
47,68:5
47,69:10
47,70:10
48,36:15
48,37:15
48,38:15
48,39:15
48,40:15
48,41:6
48,44:6
48,45:6
48,46:15
48,47:10
48,49:10
48,51:6
48,53:6
48,54:10
48,55:10
48,56:15
48,57:15
48,58:15
48,59:15
48,62:6
48,63:6
48,64:15
48,68:15
49,36:5
49,37:5
49,38:5
49,39:5
49,40:5
49,41:4
49,42:10
49,43:10
49,44:4
49,45:4
49,46:5
49,51:4
49,52:10
49,53:4
49,56:5
49,57:5
49,58:5
49,59:5
49,60:10
49,61:10
49,62:4
49,63:4
49,64:5
49,65:10
49,66:10
49,67:10
49,68:5
49,69:10
49,70:10
50,51:4
50,52:10
50,53:4
50,56:5
50,57:5
50,58:5
50,59:5
50,60:10
50,61:10
50,62:4
50,63:4
50,64:5
50,65:10
50,66:10
50,67:10
50,68:5
50,69:10
50,70:10
51,36:9
51,37:9
51,38:9
51,39:9
51,40:9
51,42:6
51,43:6
51,46:9
51,47:4
51,48:6
51,49:4
51,50:4
51,52:6
51,56:9
51,57:9
51,58:9
51,59:9
51,60:6
51,61:6
51,64:9
51,65:6
51,66:6
51,67:6
51,68:9
51,69:6
51,70:6
52,36:15
52,37:15
52,38:15
52,39:15
52,40:15
52,41:6
52,44:6
52,45:6
52,46:15
52,47:10
52,49:10
52,50:10
52,53:6
52,54:10
52,56:15
52,57:15
52,58:15
52,59:15
52,62:6
52,63:6
52,64:15
52,68:15
53,36:9
53,37:9
53,38:9
53,39:9
53,40:9
53,42:6
53,43:6
53,46:9
53,47:4
53,48:6
53,49:4
53,50:4
53,52:6
53,54:4
53,56:9
53,57:9
53,58:9
53,59:9
53,60:6
53,61:6
53,64:9
53,65:6
53,66:6
53,67:6
53,68:9
53,69:6
53,70:6
54,36:5
54,37:5
54,38:5
54,39:5
54,40:5
54,41:4
54,42:10
54,43:10
54,44:4
54,45:4
54,46:5
54,48:10
54,56:5
54,57:5
54,58:5
54,59:5
54,60:10
54,61:10
54,62:4
54,63:4
54,64:5
54,65:10
54,66:10
54,67:10
54,68:5
54,69:10
54,70:10
55,36:5
55,37:5
55,38:5
55,39:5
55,40:5
55,41:4
55,42:10
55,43:10
55,44:4
55,45:4
55,46:5
55,48:10
55,56:5
55,57:5
55,58:5
55,59:5
55,60:10
55,61:10
55,62:4
55,63:4
55,64:5
55,65:10
55,66:10
55,67:10
55,68:5
55,69:10
55,70:10
56,41:9
56,42:15
56,43:15
56,44:9
56,45:9
56,47:5
56,48:15
56,49:5
56,50:5
56,51:9
56,52:15
56,53:9
56,54:5
56,55:5
56,60:15
56,61:15
56,62:9
56,63:9
56,65:15
56,66:15
56,67:15
56,69:15
56,70:15
57,1:9
57,2:9
57,3:9
57,4:9
57,5:9
57,6:19
57,7:19
57,8:5
57,9:9
57,10:19
57,11:19
57,12:5
57,13:13
57,14:13
57,20:13
57,21:12
57,22:13
57,23:12
57,24:12
57,25:12
57,26:4
57,27:4
57,28:4
57,29:12
57,30:12
57,31:12
57,32:4
57,33:4
57,34:4
57,35:9
57,41:9
57,42:15
57,43:15
57,44:9
57,45:9
57,47:5
57,48:15
57,49:5
57,50:5
57,51:9
57,52:15
57,53:9
57,54:5
57,55:5
57,61:15
57,62:9
57,63:9
57,65:15
57,66:15
57,67:15
57,69:15
57,70:15
58,1:9
58,2:9
58,3:9
58,4:9
58,5:9
58,6:19
58,7:19
58,8:5
58,9:9
58,10:19
58,11:19
58,12:5
58,13:13
58,14:13
58,20:13
58,21:12
58,22:13
58,23:12
58,24:12
58,25:12
58,26:4
58,27:4
58,28:4
58,29:12
58,30:12
58,31:12
58,32:4
58,33:4
58,34:4
58,35:9
58,41:9
58,42:15
58,43:15
58,44:9
58,45:9
58,47:5
58,48:15
58,49:5
58,50:5
58,51:9
58,52:15
58,53:9
58,54:5
58,55:5
58,61:15
58,62:9
58,63:9
58,65:15
58,66:15
58,67:15
58,69:15
58,70:15
59,1:9
59,2:9
59,3:9
59,4:9
59,5:9
59,6:19
59,7:19
59,8:5
59,9:9
59,10:19
59,11:19
59,12:5
59,13:13
59,14:13
59,20:13
59,21:12
59,22:13
59,23:12
59,24:12
59,25:12
59,26:4
59,27:4
59,28:4
59,29:12
59,30:12
59,31:12
59,32:4
59,33:4
59,34:4
59,35:9
59,41:9
59,42:15
59,43:15
59,44:9
59,45:9
59,47:5
59,48:15
59,49:5
59,50:5
59,51:9
59,52:15
59,53:9
59,54:5
59,55:5
59,60:15
59,61:15
59,62:9
59,63:9
59,65:15
59,66:15
59,67:15
59,69:15
59,70:15
60,36:15
60,37:15
60,38:15
60,39:15
60,40:15
60,41:6
60,44:6
60,45:6
60,46:15
60,47:10
60,49:10
60,50:10
60,51:6
60,53:6
60,54:10
60,55:10
60,56:15
60,62:6
60,63:6
60,64:15
60,68:15
61,36:15
61,37:15
61,38:15
61,39:15
61,40:15
61,41:6
61,44:6
61,45:6
61,46:15
61,47:10
61,49:10
61,50:10
61,51:6
61,53:6
61,54:10
61,55:10
61,56:15
61,57:15
61,58:15
61,59:15
61,62:6
61,63:6
61,64:15
61,68:15
62,36:9
62,37:9
62,38:9
62,39:9
62,40:9
62,42:6
62,43:6
62,46:9
62,47:4
62,48:6
62,49:4
62,50:4
62,52:6
62,54:4
62,55:4
62,56:9
62,57:9
62,58:9
62,59:9
62,60:6
62,61:6
62,68:9
62,69:6
62,70:6
63,36:9
63,37:9
63,38:9
63,39:9
63,40:9
63,42:6
63,43:6
63,46:9
63,47:4
63,48:6
63,49:4
63,50:4
63,52:6
63,54:4
63,55:4
63,56:9
63,57:9
63,58:9
63,59:9
63,60:6
63,61:6
63,64:9
63,68:9
63,69:6
63,70:6
64,41:9
64,42:15
64,43:15
64,44:9
64,45:9
64,47:5
64,48:15
64,49:5
64,50:5
64,51:9
64,52:15
64,53:9
64,54:5
64,55:5
64,60:15
64,61:15
64,65:15
64,66:15
64,67:15
64,69:15
64,70:15
65,36:15
65,37:15
65,38:15
65,39:15
65,40:15
65,41:6
65,44:6
65,45:6
65,46:15
65,47:10
65,49:10
65,50:10
65,51:6
65,53:6
65,54:10
65,55:10
65,56:15
65,57:15
65,58:15
65,59:15
65,68:15
66,36:15
66,37:15
66,38:15
66,39:15
66,40:15
66,41:6
66,44:6
66,45:6
66,46:15
66,47:10
66,49:10
66,50:10
66,51:6
66,53:6
66,54:10
66,55:10
66,56:15
66,57:15
66,58:15
66,59:15
66,68:15
67,36:15
67,37:15
67,38:15
67,39:15
67,40:15
67,41:6
67,44:6
67,45:6
67,46:15
67,47:10
67,49:10
67,50:10
67,51:6
67,53:6
67,54:10
67,55:10
67,56:15
67,57:15
67,58:15
67,59:15
67,68:15
68,4:9
68,5:9
68,6:19
68,7:19
68,8:5
68,9:9
68,10:19
68,11:19
68,12:5
68,13:13
68,14:13
68,15:9
68,16:19
68,17:5
68,18:5
68,19:5
68,20:13
68,21:12
68,22:13
68,23:12
68,24:12
68,25:12
68,26:4
68,27:4
68,28:4
68,29:12
68,30:12
68,31:12
68,32:4
68,33:4
68,34:4
68,35:9
68,41:9
68,42:15
68,43:15
68,44:9
68,45:9
68,47:5
68,48:15
68,49:5
68,50:5
68,51:9
68,52:15
68,53:9
68,54:5
68,55:5
68,60:15
68,61:15
68,62:9
68,63:9
68,65:15
68,66:15
68,67:15
68,69:15
68,70:15
69,2:6
69,3:6
69,4:6
69,5:6
69,6:4
69,7:4
69,8:10
69,9:6
69,10:4
69,11:4
69,12:10
69,13:2
69,14:2
69,15:6
69,16:4
69,17:10
69,18:10
69,19:10
69,20:2
69,21:3
69,22:2
69,23:3
69,24:3
69,25:3
69,26:11
69,27:11
69,28:11
69,29:3
69,30:3
69,31:3
69,32:11
69,33:11
69,34:11
69,35:6
69,36:15
69,37:15
69,38:15
69,39:15
69,40:15
69,41:6
69,44:6
69,45:6
69,46:15
69,47:10
69,49:10
69,50:10
69,51:6
69,53:6
69,54:10
69,55:10
69,56:15
69,57:15
69,58:15
69,59:15
69,62:6
69,63:6
69,64:15
69,68:15
70,2:6
70,3:6
70,4:6
70,5:6
70,6:4
70,7:4
70,8:10
70,9:6
70,10:4
70,11:4
70,12:10
70,13:2
70,14:2
70,15:6
70,16:4
70,17:10
70,18:10
70,19:10
70,20:2
70,21:3
70,22:2
70,23:3
70,24:3
70,25:3
70,26:11
70,27:11
70,28:11
70,29:3
70,30:3
70,31:3
70,32:11
70,33:11
70,34:11
70,35:6
70,36:15
70,37:15
70,38:15
70,39:15
70,40:15
70,41:6
70,44:6
70,45:6
70,46:15
70,47:10
70,49:10
70,50:10
70,51:6
70,53:6
70,54:10
70,55:10
70,56:15
70,57:15
70,58:15
70,59:15
70,62:6
70,63:6
70,64:15
70,68:15

<setup times backward>
1,1:1
1,5:1
1,9:1
1,15:1
1,17:5
1,18:5
1,19:5
1,57:10
1,58:10
1,59:10
2,1:1
2,2:1
2,5:1
2,9:1
2,15:1
2,17:5
2,18:5
2,19:5
2,41:1
2,57:10
2,58:10
2,59:10
3,1:1
3,2:1
3,3:1
3,5:1
3,9:1
3,15:1
3,17:5
3,18:5
3,19:5
3,41:1
3,57:10
3,58:10
3,59:10
4,1:1
4,2:1
4,3:1
4,4:1
4,5:1
4,9:1
4,15:1
4,17:5
4,18:5
4,19:5
4,41:1
4,57:10
4,58:10
4,59:10
4,68:10
5,1:1
5,2:1
5,3:1
5,4:1
5,5:1
5,9:1
5,15:1
5,17:5
5,18:5
5,19:5
5,41:1
5,57:10
5,58:10
5,59:10
5,68:10
6,1:11
6,2:11
6,3:11
6,4:11
6,5:11
6,6:1
6,7:1
6,9:11
6,10:1
6,11:1
6,15:11
6,16:1
6,17:15
6,18:15
6,19:15
6,20:7
6,21:8
6,22:7
6,24:8
6,30:8
6,41:11
6,57:20
6,58:20
6,59:20
6,68:20
6,69:5
6,70:5
7,1:11
7,2:11
7,3:11
7,4:11
7,5:11
7,6:1
7,7:1
7,9:11
7,10:1
7,11:1
7,15:11
7,16:1
7,17:15
7,18:15
7,19:15
7,20:7
7,21:8
7,22:7
7,24:8
7,30:8
7,41:11
7,57:20
7,58:20
7,59:20
7,68:20
7,69:5
7,70:5
8,8:1
8,17:1
8,18:1
8,19:1
8,57:6
8,58:6
8,59:6
8,68:6
9,1:1
9,2:1
9,3:1
9,4:1
9,5:1
9,8:5
9,9:1
9,15:1
9,17:5
9,18:5
9,19:5
9,41:1
9,57:10
9,58:10
9,59:10
9,68:10
10,1:11
10,2:11
10,3:11
10,4:11
10,5:11
10,6:1
10,7:1
10,8:15
10,9:11
10,10:1
10,15:11
10,16:1
10,17:15
10,18:15
10,19:15
10,20:7
10,21:8
10,22:7
10,24:8
10,30:8
10,41:11
10,57:20
10,58:20
10,59:20
10,68:20
10,69:5
10,70:5
11,1:11
11,2:11
11,3:11
11,4:11
11,5:11
11,6:1
11,7:1
11,8:15
11,9:11
11,10:1
11,11:1
11,15:11
11,16:1
11,17:15
11,18:15
11,19:15
11,20:7
11,21:8
11,22:7
11,24:8
11,30:8
11,41:11
11,57:20
11,58:20
11,59:20
11,68:20
11,69:5
11,70:5
12,8:1
12,12:1
12,17:1
12,18:1
12,19:1
12,57:6
12,58:6
12,59:6
12,68:6
13,1:5
13,2:5
13,3:5
13,4:5
13,5:5
13,8:9
13,9:5
13,12:9
13,13:1
13,14:1
13,15:5
13,17:9
13,18:9
13,19:9
13,20:1
13,21:2
13,22:1
13,24:2
13,30:2
13,41:5
13,57:14
13,58:14
13,59:14
13,68:14
14,1:5
14,2:5
14,3:5
14,4:5
14,5:5
14,8:9
14,9:5
14,12:9
14,13:1
14,14:1
14,15:5
14,17:9
14,18:9
14,19:9
14,20:1
14,21:2
14,22:1
14,24:2
14,30:2
14,41:5
14,57:14
14,58:14
14,59:14
14,68:14
15,1:1
15,2:1
15,3:1
15,4:1
15,5:1
15,8:5
15,9:1
15,12:5
15,15:1
15,41:1
15,68:10
16,1:11
16,2:11
16,3:11
16,4:11
16,5:11
16,6:1
16,7:1
16,8:15
16,9:11
16,10:1
16,11:1
16,12:15
16,13:7
16,14:7
16,15:11
16,16:1
16,24:8
16,30:8
16,41:11
16,68:20
16,69:5
16,70:5
17,8:1
17,12:1
17,17:1
17,18:1
17,68:6
18,8:1
18,12:1
18,17:1
18,18:1
18,68:6
19,8:1
19,12:1
19,17:1
19,18:1
19,19:1
19,68:6
20,1:5
20,2:5
20,3:5
20,4:5
20,5:5
20,8:9
20,9:5
20,12:9
20,13:1
20,14:1
20,15:5
20,17:9
20,18:9
20,19:9
20,20:1
20,22:1
20,24:2
20,30:2
20,41:5
20,57:14
20,58:14
20,59:14
20,68:14
21,1:4
21,2:4
21,3:4
21,4:4
21,5:4
21,8:8
21,9:4
21,12:8
21,15:4
21,17:8
21,18:8
21,19:8
21,21:1
21,24:1
21,30:1
21,41:4
21,57:13
21,58:13
21,59:13
21,68:13
22,1:5
22,2:5
22,3:5
22,4:5
22,5:5
22,8:9
22,9:5
22,12:9
22,13:1
22,14:1
22,15:5
22,17:9
22,18:9
22,19:9
22,20:1
22,21:2
22,22:1
22,24:2
22,30:2
22,41:5
22,57:14
22,58:14
22,59:14
22,68:14
23,1:4
23,2:4
23,3:4
23,4:4
23,5:4
23,8:8
23,9:4
23,12:8
23,15:4
23,17:8
23,18:8
23,19:8
23,21:1
23,23:1
23,24:1
23,30:1
23,41:4
23,57:13
23,58:13
23,59:13
23,68:13
24,1:4
24,2:4
24,3:4
24,4:4
24,5:4
24,8:8
24,9:4
24,12:8
24,15:4
24,17:8
24,18:8
24,19:8
24,21:1
24,23:1
24,24:1
24,30:1
24,31:1
24,32:9
24,33:9
24,34:9
24,41:4
24,57:13
24,58:13
24,59:13
24,68:13
25,1:4
25,2:4
25,3:4
25,4:4
25,5:4
25,8:8
25,9:4
25,12:8
25,15:4
25,17:8
25,18:8
25,19:8
25,21:1
25,23:1
25,24:1
25,25:1
25,30:1
25,31:1
25,32:9
25,33:9
25,34:9
25,41:4
25,57:13
25,58:13
25,59:13
25,68:13
26,26:1
26,27:1
26,28:1
26,32:1
26,33:1
26,34:1
26,57:5
26,58:5
26,59:5
26,68:5
27,26:1
27,27:1
27,28:1
27,32:1
27,33:1
27,34:1
27,57:5
27,58:5
27,59:5
27,68:5
28,26:1
28,27:1
28,28:1
28,32:1
28,33:1
28,34:1
28,57:5
28,58:5
28,59:5
28,68:5
29,1:4
29,2:4
29,3:4
29,4:4
29,5:4
29,8:8
29,9:4
29,12:8
29,15:4
29,17:8
29,18:8
29,19:8
29,21:1
29,23:1
29,24:1
29,25:1
29,26:9
29,27:9
29,28:9
29,29:1
29,30:1
29,31:1
29,32:9
29,33:9
29,34:9
29,41:4
29,57:13
29,58:13
29,59:13
29,68:13
30,1:4
30,2:4
30,3:4
30,4:4
30,5:4
30,8:8
30,9:4
30,12:8
30,15:4
30,17:8
30,18:8
30,19:8
30,21:1
30,23:1
30,24:1
30,25:1
30,26:9
30,27:9
30,28:9
30,29:1
30,30:1
30,33:9
30,34:9
30,41:4
30,57:13
30,58:13
30,59:13
30,68:13
31,1:4
31,2:4
31,3:4
31,4:4
31,5:4
31,8:8
31,9:4
31,12:8
31,15:4
31,17:8
31,18:8
31,19:8
31,21:1
31,23:1
31,24:1
31,25:1
31,26:9
31,27:9
31,28:9
31,29:1
31,30:1
31,31:1
31,33:9
31,34:9
31,41:4
31,57:13
31,58:13
31,59:13
31,68:13
32,26:1
32,27:1
32,28:1
32,32:1
32,33:1
32,34:1
32,57:5
32,58:5
32,59:5
32,68:5
33,26:1
33,27:1
33,28:1
33,32:1
33,33:1
33,57:5
33,58:5
33,59:5
33,68:5
34,26:1
34,27:1
34,28:1
34,32:1
34,33:1
34,34:1
34,57:5
34,58:5
34,59:5
34,68:5
35,1:1
35,2:1
35,3:1
35,4:1
35,5:1
35,8:5
35,9:1
35,12:5
35,15:1
35,17:5
35,18:5
35,19:5
35,26:6
35,27:6
35,28:6
35,32:6
35,33:6
35,34:6
35,35:1
35,41:1
35,57:10
35,58:10
35,59:10
35,68:10
36,36:1
36,46:1
36,56:1
36,57:1
36,58:1
36,59:1
36,64:1
36,68:1
37,36:1
37,37:1
37,46:1
37,56:1
37,57:1
37,58:1
37,59:1
37,64:1
37,68:1
38,36:1
38,37:1
38,38:1
38,46:1
38,56:1
38,57:1
38,58:1
38,59:1
38,64:1
38,68:1
39,36:1
39,37:1
39,38:1
39,39:1
39,46:1
39,56:1
39,57:1
39,58:1
39,59:1
39,64:1
39,68:1
40,36:1
40,37:1
40,38:1
40,39:1
40,40:1
40,46:1
40,56:1
40,57:1
40,58:1
40,59:1
40,64:1
40,68:1
41,1:1
41,2:1
41,3:1
41,4:1
41,5:1
41,8:5
41,9:1
41,12:5
41,15:1
41,17:5
41,18:5
41,19:5
41,26:6
41,27:6
41,28:6
41,32:6
41,33:6
41,34:6
41,35:1
41,36:10
41,37:10
41,38:10
41,39:10
41,40:10
41,41:1
41,44:1
41,45:1
41,46:10
41,47:5
41,49:5
41,51:1
41,53:1
41,54:5
41,55:5
41,56:10
41,57:10
41,58:10
41,59:10
41,62:1
41,63:1
41,64:10
41,68:10
42,1:7
42,2:7
42,3:7
42,4:7
42,5:7
42,8:11
42,9:7
42,12:11
42,13:3
42,14:3
42,15:7
42,17:11
42,18:11
42,19:11
42,20:3
42,21:4
42,22:3
42,23:4
42,24:4
42,25:4
42,26:12
42,27:12
42,28:12
42,29:4
42,30:4
42,31:4
42,32:12
42,33:12
42,34:12
42,35:7
42,36:16
42,37:16
42,38:16
42,39:16
42,40:16
42,41:7
42,42:1
42,44:7
42,45:7
42,46:16
42,47:11
42,48:1
42,49:11
42,51:7
42,52:1
42,53:7
42,54:11
42,55:11
42,56:16
42,57:16
42,58:16
42,59:16
42,60:1
42,61:1
42,62:7
42,63:7
42,64:16
42,65:1
42,66:1
42,67:1
42,68:16
42,69:1
42,70:1
43,1:7
43,2:7
43,3:7
43,4:7
43,5:7
43,8:11
43,9:7
43,12:11
43,13:3
43,14:3
43,15:7
43,17:11
43,18:11
43,19:11
43,20:3
43,21:4
43,22:3
43,23:4
43,24:4
43,25:4
43,26:12
43,27:12
43,28:12
43,29:4
43,30:4
43,31:4
43,32:12
43,33:12
43,34:12
43,35:7
43,36:16
43,37:16
43,38:16
43,39:16
43,40:16
43,41:7
43,42:1
43,43:1
43,44:7
43,45:7
43,46:16
43,47:11
43,48:1
43,49:11
43,51:7
43,52:1
43,53:7
43,54:11
43,55:11
43,56:16
43,57:16
43,58:16
43,59:16
43,60:1
43,61:1
43,62:7
43,63:7
43,64:16
43,65:1
43,66:1
43,67:1
43,68:16
43,69:1
43,70:1
44,1:1
44,2:1
44,3:1
44,4:1
44,5:1
44,8:5
44,9:1
44,12:5
44,15:1
44,17:5
44,18:5
44,19:5
44,26:6
44,27:6
44,28:6
44,32:6
44,33:6
44,34:6
44,35:1
44,36:10
44,37:10
44,38:10
44,39:10
44,40:10
44,41:1
44,44:1
44,49:5
44,51:1
44,53:1
44,54:5
44,55:5
44,56:10
44,57:10
44,58:10
44,59:10
44,62:1
44,63:1
44,64:10
44,68:10
45,1:1
45,2:1
45,3:1
45,4:1
45,5:1
45,8:5
45,9:1
45,12:5
45,15:1
45,17:5
45,18:5
45,19:5
45,26:6
45,27:6
45,28:6
45,32:6
45,33:6
45,34:6
45,35:1
45,36:10
45,37:10
45,38:10
45,39:10
45,40:10
45,41:1
45,44:1
45,45:1
45,49:5
45,51:1
45,53:1
45,54:5
45,55:5
45,56:10
45,57:10
45,58:10
45,59:10
45,62:1
45,63:1
45,64:10
45,68:10
46,36:1
46,37:1
46,38:1
46,39:1
46,40:1
46,46:1
46,56:1
46,57:1
46,58:1
46,59:1
46,64:1
46,68:1
47,8:1
47,12:1
47,17:1
47,18:1
47,19:1
47,26:2
47,27:2
47,28:2
47,32:2
47,33:2
47,34:2
47,36:6
47,37:6
47,38:6
47,39:6
47,40:6
47,46:6
47,47:1
47,49:1
47,54:1
47,55:1
47,56:6
47,57:6
47,58:6
47,59:6
47,64:6
47,68:6
48,1:7
48,2:7
48,3:7
48,4:7
48,5:7
48,8:11
48,9:7
48,12:11
48,13:3
48,14:3
48,15:7
48,17:11
48,18:11
48,19:11
48,20:3
48,21:4
48,22:3
48,23:4
48,24:4
48,25:4
48,26:12
48,27:12
48,28:12
48,29:4
48,30:4
48,31:4
48,32:12
48,33:12
48,34:12
48,35:7
48,36:16
48,37:16
48,38:16
48,39:16
48,40:16
48,41:7
48,42:1
48,43:1
48,44:7
48,45:7
48,46:16
48,47:11
48,48:1
48,51:7
48,52:1
48,53:7
48,54:11
48,55:11
48,56:16
48,57:16
48,58:16
48,59:16
48,60:1
48,61:1
48,62:7
48,63:7
48,64:16
48,65:1
48,66:1
48,67:1
48,68:16
48,69:1
48,70:1
49,8:1
49,12:1
49,17:1
49,18:1
49,19:1
49,26:2
49,27:2
49,28:2
49,32:2
49,33:2
49,34:2
49,36:6
49,37:6
49,38:6
49,39:6
49,40:6
49,46:6
49,47:1
49,49:1
49,54:1
49,55:1
49,56:6
49,57:6
49,58:6
49,59:6
49,64:6
49,68:6
50,8:1
50,12:1
50,17:1
50,18:1
50,19:1
50,26:2
50,27:2
50,28:2
50,32:2
50,33:2
50,34:2
50,36:6
50,37:6
50,38:6
50,39:6
50,40:6
50,46:6
50,47:1
50,49:1
50,50:1
50,54:1
50,55:1
50,56:6
50,57:6
50,58:6
50,59:6
50,64:6
50,68:6
51,1:1
51,2:1
51,3:1
51,4:1
51,5:1
51,8:5
51,9:1
51,12:5
51,15:1
51,17:5
51,18:5
51,19:5
51,26:6
51,27:6
51,28:6
51,32:6
51,33:6
51,34:6
51,35:1
51,36:10
51,37:10
51,38:10
51,39:10
51,40:10
51,41:1
51,44:1
51,45:1
51,46:10
51,47:5
51,49:5
51,50:5
51,51:1
51,53:1
51,56:10
51,57:10
51,58:10
51,59:10
51,62:1
51,63:1
51,64:10
51,68:10
52,1:7
52,2:7
52,3:7
52,4:7
52,5:7
52,8:11
52,9:7
52,12:11
52,13:3
52,14:3
52,15:7
52,17:11
52,18:11
52,19:11
52,20:3
52,21:4
52,22:3
52,23:4
52,24:4
52,25:4
52,26:12
52,27:12
52,28:12
52,29:4
52,30:4
52,31:4
52,32:12
52,33:12
52,34:12
52,35:7
52,36:16
52,37:16
52,38:16
52,39:16
52,40:16
52,41:7
52,42:1
52,43:1
52,44:7
52,45:7
52,46:16
52,47:11
52,48:1
52,49:11
52,50:11
52,51:7
52,52:1
52,53:7
52,56:16
52,57:16
52,58:16
52,59:16
52,60:1
52,61:1
52,62:7
52,63:7
52,64:16
52,65:1
52,66:1
52,67:1
52,68:16
52,69:1
52,70:1
53,1:1
53,2:1
53,3:1
53,4:1
53,5:1
53,8:5
53,9:1
53,12:5
53,15:1
53,17:5
53,18:5
53,19:5
53,26:6
53,27:6
53,28:6
53,32:6
53,33:6
53,34:6
53,35:1
53,36:10
53,37:10
53,38:10
53,39:10
53,40:10
53,41:1
53,44:1
53,45:1
53,46:10
53,47:5
53,49:5
53,50:5
53,51:1
53,53:1
53,56:10
53,57:10
53,58:10
53,59:10
53,62:1
53,63:1
53,64:10
53,68:10
54,8:1
54,12:1
54,17:1
54,18:1
54,19:1
54,26:2
54,27:2
54,28:2
54,32:2
54,33:2
54,34:2
54,36:6
54,37:6
54,38:6
54,39:6
54,40:6
54,46:6
54,47:1
54,49:1
54,50:1
54,54:1
54,56:6
54,57:6
54,58:6
54,59:6
54,64:6
54,68:6
55,8:1
55,12:1
55,17:1
55,18:1
55,19:1
55,26:2
55,27:2
55,28:2
55,32:2
55,33:2
55,34:2
55,36:6
55,37:6
55,38:6
55,39:6
55,40:6
55,46:6
55,47:1
55,49:1
55,50:1
55,54:1
55,55:1
55,56:6
55,57:6
55,58:6
55,59:6
55,64:6
55,68:6
56,36:1
56,37:1
56,38:1
56,39:1
56,40:1
56,46:1
56,56:1
56,57:1
56,58:1
56,59:1
56,64:1
56,68:1
57,36:1
57,37:1
57,38:1
57,39:1
57,40:1
57,46:1
57,56:1
57,57:1
57,64:1
57,68:1
58,36:1
58,37:1
58,38:1
58,39:1
58,40:1
58,46:1
58,56:1
58,57:1
58,58:1
58,64:1
58,68:1
59,36:1
59,37:1
59,38:1
59,39:1
59,40:1
59,46:1
59,56:1
59,57:1
59,58:1
59,59:1
59,64:1
59,68:1
60,1:7
60,2:7
60,3:7
60,4:7
60,5:7
60,8:11
60,9:7
60,12:11
60,13:3
60,14:3
60,15:7
60,17:11
60,18:11
60,19:11
60,20:3
60,21:4
60,22:3
60,23:4
60,24:4
60,25:4
60,26:12
60,27:12
60,28:12
60,29:4
60,30:4
60,31:4
60,32:12
60,33:12
60,34:12
60,35:7
60,36:16
60,37:16
60,38:16
60,39:16
60,40:16
60,41:7
60,42:1
60,43:1
60,44:7
60,45:7
60,46:16
60,47:11
60,48:1
60,49:11
60,50:11
60,51:7
60,52:1
60,53:7
60,54:11
60,55:11
60,56:16
60,57:16
60,58:16
60,59:16
60,60:1
60,61:1
60,62:7
60,63:7
60,64:16
60,65:1
60,66:1
60,67:1
60,68:16
60,69:1
60,70:1
61,1:7
61,2:7
61,3:7
61,4:7
61,5:7
61,8:11
61,9:7
61,12:11
61,13:3
61,14:3
61,15:7
61,17:11
61,18:11
61,19:11
61,20:3
61,21:4
61,22:3
61,23:4
61,24:4
61,25:4
61,26:12
61,27:12
61,28:12
61,29:4
61,30:4
61,31:4
61,32:12
61,33:12
61,34:12
61,35:7
61,36:16
61,37:16
61,38:16
61,39:16
61,40:16
61,41:7
61,42:1
61,43:1
61,44:7
61,45:7
61,46:16
61,47:11
61,48:1
61,49:11
61,50:11
61,51:7
61,52:1
61,53:7
61,54:11
61,55:11
61,56:16
61,57:16
61,58:16
61,59:16
61,60:1
61,61:1
61,62:7
61,63:7
61,64:16
61,66:1
61,67:1
61,68:16
61,69:1
61,70:1
62,1:1
62,2:1
62,3:1
62,4:1
62,5:1
62,8:5
62,9:1
62,12:5
62,15:1
62,17:5
62,18:5
62,19:5
62,26:6
62,27:6
62,28:6
62,32:6
62,33:6
62,34:6
62,35:1
62,36:10
62,37:10
62,38:10
62,39:10
62,40:10
62,41:1
62,44:1
62,45:1
62,46:10
62,47:5
62,49:5
62,50:5
62,51:1
62,53:1
62,54:5
62,55:5
62,56:10
62,57:10
62,58:10
62,59:10
62,62:1
62,68:10
63,1:1
63,2:1
63,3:1
63,4:1
63,5:1
63,8:5
63,9:1
63,12:5
63,15:1
63,17:5
63,18:5
63,19:5
63,26:6
63,27:6
63,28:6
63,32:6
63,33:6
63,34:6
63,35:1
63,36:10
63,37:10
63,38:10
63,39:10
63,40:10
63,41:1
63,44:1
63,45:1
63,46:10
63,47:5
63,49:5
63,50:5
63,51:1
63,53:1
63,54:5
63,55:5
63,56:10
63,57:10
63,58:10
63,59:10
63,62:1
63,63:1
63,68:10
64,36:1
64,37:1
64,38:1
64,39:1
64,40:1
64,46:1
64,56:1
64,57:1
64,58:1
64,59:1
64,64:1
64,68:1
65,1:7
65,2:7
65,3:7
65,4:7
65,5:7
65,8:11
65,9:7
65,12:11
65,13:3
65,14:3
65,15:7
65,17:11
65,18:11
65,19:11
65,20:3
65,21:4
65,22:3
65,23:4
65,24:4
65,25:4
65,26:12
65,27:12
65,28:12
65,29:4
65,30:4
65,31:4
65,32:12
65,33:12
65,34:12
65,35:7
65,36:16
65,37:16
65,38:16
65,39:16
65,40:16
65,41:7
65,42:1
65,43:1
65,44:7
65,45:7
65,46:16
65,47:11
65,48:1
65,49:11
65,50:11
65,51:7
65,52:1
65,53:7
65,54:11
65,55:11
65,56:16
65,57:16
65,58:16
65,59:16
65,60:1
65,61:1
65,62:7
65,63:7
65,64:16
65,65:1
65,66:1
65,67:1
65,68:16
65,69:1
65,70:1
66,1:7
66,2:7
66,3:7
66,4:7
66,5:7
66,8:11
66,9:7
66,12:11
66,13:3
66,14:3
66,15:7
66,17:11
66,18:11
66,19:11
66,20:3
66,21:4
66,22:3
66,23:4
66,24:4
66,25:4
66,26:12
66,27:12
66,28:12
66,29:4
66,30:4
66,31:4
66,32:12
66,33:12
66,34:12
66,35:7
66,36:16
66,37:16
66,38:16
66,39:16
66,40:16
66,41:7
66,42:1
66,43:1
66,44:7
66,45:7
66,46:16
66,47:11
66,48:1
66,49:11
66,50:11
66,51:7
66,52:1
66,53:7
66,54:11
66,55:11
66,56:16
66,57:16
66,58:16
66,59:16
66,60:1
66,61:1
66,62:7
66,63:7
66,64:16
66,65:1
66,66:1
66,67:1
66,68:16
66,69:1
66,70:1
67,1:7
67,2:7
67,3:7
67,4:7
67,5:7
67,8:11
67,9:7
67,12:11
67,13:3
67,14:3
67,15:7
67,17:11
67,18:11
67,19:11
67,20:3
67,21:4
67,22:3
67,23:4
67,24:4
67,25:4
67,26:12
67,27:12
67,28:12
67,29:4
67,30:4
67,31:4
67,32:12
67,33:12
67,34:12
67,35:7
67,36:16
67,37:16
67,38:16
67,39:16
67,40:16
67,41:7
67,42:1
67,43:1
67,44:7
67,45:7
67,46:16
67,47:11
67,48:1
67,49:11
67,50:11
67,51:7
67,52:1
67,53:7
67,54:11
67,55:11
67,56:16
67,57:16
67,58:16
67,59:16
67,60:1
67,61:1
67,62:7
67,63:7
67,64:16
67,65:1
67,66:1
67,67:1
67,68:16
67,69:1
67,70:1
68,36:1
68,37:1
68,38:1
68,39:1
68,40:1
68,46:1
68,56:1
68,57:1
68,58:1
68,59:1
68,64:1
68,68:1
69,1:7
69,2:7
69,3:7
69,4:7
69,5:7
69,8:11
69,9:7
69,12:11
69,13:3
69,14:3
69,15:7
69,17:11
69,18:11
69,19:11
69,20:3
69,21:4
69,22:3
69,23:4
69,24:4
69,25:4
69,26:12
69,27:12
69,28:12
69,29:4
69,30:4
69,31:4
69,32:12
69,33:12
69,34:12
69,35:7
69,36:16
69,37:16
69,38:16
69,39:16
69,40:16
69,41:7
69,42:1
69,43:1
69,44:7
69,45:7
69,46:16
69,47:11
69,48:1
69,49:11
69,50:11
69,51:7
69,52:1
69,53:7
69,54:11
69,55:11
69,56:16
69,57:16
69,58:16
69,59:16
69,60:1
69,61:1
69,62:7
69,63:7
69,64:16
69,65:1
69,66:1
69,67:1
69,68:16
69,69:1
69,70:1
70,1:7
70,2:7
70,3:7
70,4:7
70,5:7
70,8:11
70,9:7
70,12:11
70,13:3
70,14:3
70,15:7
70,17:11
70,18:11
70,19:11
70,20:3
70,21:4
70,22:3
70,23:4
70,24:4
70,25:4
70,26:12
70,27:12
70,28:12
70,29:4
70,30:4
70,31:4
70,32:12
70,33:12
70,34:12
70,35:7
70,36:16
70,37:16
70,38:16
70,39:16
70,40:16
70,41:7
70,42:1
70,43:1
70,44:7
70,45:7
70,46:16
70,47:11
70,48:1
70,49:11
70,50:11
70,51:7
70,52:1
70,53:7
70,54:11
70,55:11
70,56:16
70,57:16
70,58:16
70,59:16
70,60:1
70,61:1
70,62:7
70,63:7
70,64:16
70,65:1
70,66:1
70,67:1
70,68:16
70,69:1
70,70:1

<end>

<optimal SALBP-1 value>
10


<rand seed>
467321153

<Lower Bounds>
Lm1=10
Lms1=10
Lm2=0
Lm3=3
Lm4=10
Best=10

<Optimal Stations (Iterations: 10)>
12
